5 5
2 8 0 67 3 63 1 9 4 94
1 11 0 99 3 42 2 13 4 36
4 13 0 12 2 37 3 74 1 73
3 52 2 71 0 2 1 56 4 60
3 23 0 40 4 64 2 85 1 23
-1
0 1 2 5
0 1 3 5
0 2 3 4 5
0 1 3 4 5
0 2 3 4 5
-2
8 89 332
12 223 310
38 93 150 328
80 145 269 252
74 192 321 342

409 4
11 21 6 17 1
5 18 14 3 24
0 12 16 8 23
20 15 13 7 2
10 22 9 19 4
